p cnf 430 1488
-191 154 0
-191 7 0
-191 161 0
-191 130 0
-191 112 0
191 -154 -7 -161 -130 -112 0
-192 -175 0
-192 -164 0
-192 -111 0
-192 -92 0
-192 1 0
192 175 164 111 92 -1 0
-193 -120 0
-193 160 0
-193 151 0
-193 182 0
-193 17 0
193 120 -160 -151 -182 -17 0
-194 175 0
-194 115 0
-194 139 0
-194 183 0
-194 -39 0
194 -175 -115 -139 -183 39 0
-195 -29 0
-195 -166 0
-195 -130 0
-195 183 0
-195 174 0
195 29 166 130 -183 -174 0
191 192 193 194 195 0
-196 -94 0
-196 48 0
-196 109 0
-196 -158 0
-196 -155 0
196 94 -48 -109 158 155 0
-197 -73 0
-197 -147 0
-197 -77 0
-197 184 0
-197 -42 0
197 73 147 77 -184 42 0
-198 -174 0
-198 -114 0
-198 -136 0
-198 55 0
-198 -68 0
198 174 114 136 -55 68 0
-199 -85 0
-199 56 0
-199 174 0
-199 52 0
-199 41 0
199 85 -56 -174 -52 -41 0
-200 186 0
-200 -41 0
-200 -95 0
-200 59 0
-200 -176 0
200 -186 41 95 -59 176 0
196 197 198 199 200 0
-201 2 0
-201 -72 0
-201 -153 0
-201 64 0
-201 16 0
201 -2 72 153 -64 -16 0
-202 126 0
-202 136 0
-202 114 0
-202 186 0
-202 158 0
202 -126 -136 -114 -186 -158 0
-203 43 0
-203 -29 0
-203 48 0
-203 -47 0
-203 15 0
203 -43 29 -48 47 -15 0
-204 188 0
-204 -100 0
-204 68 0
-204 186 0
-204 -170 0
204 -188 100 -68 -186 170 0
-205 -162 0
-205 -78 0
-205 32 0
-205 135 0
-205 -100 0
205 162 78 -32 -135 100 0
201 202 203 204 205 0
-206 -11 0
-206 9 0
-206 59 0
-206 180 0
-206 -111 0
206 11 -9 -59 -180 111 0
-207 -59 0
-207 101 0
-207 -34 0
-207 61 0
-207 -75 0
207 59 -101 34 -61 75 0
-208 -166 0
-208 -100 0
-208 67 0
-208 73 0
-208 81 0
208 166 100 -67 -73 -81 0
-209 -157 0
-209 167 0
-209 -117 0
-209 73 0
-209 -88 0
209 157 -167 117 -73 88 0
-210 20 0
-210 -29 0
-210 -131 0
-210 165 0
-210 -50 0
210 -20 29 131 -165 50 0
206 207 208 209 210 0
-211 98 0
-211 11 0
-211 -131 0
-211 -13 0
-211 -126 0
211 -98 -11 131 13 126 0
-212 1 0
-212 -160 0
-212 142 0
-212 -21 0
-212 58 0
212 -1 160 -142 21 -58 0
-213 10 0
-213 96 0
-213 -71 0
-213 160 0
-213 -2 0
213 -10 -96 71 -160 2 0
-214 -170 0
-214 131 0
-214 -44 0
-214 27 0
-214 81 0
214 170 -131 44 -27 -81 0
-215 -126 0
-215 -187 0
-215 -130 0
-215 -94 0
-215 -111 0
215 126 187 130 94 111 0
211 212 213 214 215 0
-216 86 0
-216 100 0
-216 74 0
-216 -48 0
-216 12 0
216 -86 -100 -74 48 -12 0
-217 -81 0
-217 80 0
-217 -92 0
-217 150 0
-217 -9 0
217 81 -80 92 -150 9 0
-218 -71 0
-218 51 0
-218 10 0
-218 -143 0
-218 -85 0
218 71 -51 -10 143 85 0
-219 -93 0
-219 -21 0
-219 35 0
-219 -163 0
-219 129 0
219 93 21 -35 163 -129 0
-220 -46 0
-220 -120 0
-220 66 0
-220 -16 0
-220 31 0
220 46 120 -66 16 -31 0
216 217 218 219 220 0
-221 40 0
-221 66 0
-221 -10 0
-221 55 0
-221 7 0
221 -40 -66 10 -55 -7 0
-222 -65 0
-222 125 0
-222 6 0
-222 127 0
-222 -1 0
222 65 -125 -6 -127 1 0
-223 89 0
-223 -13 0
-223 -148 0
-223 -58 0
-223 -120 0
223 -89 13 148 58 120 0
-224 -121 0
-224 72 0
-224 116 0
-224 82 0
-224 19 0
224 121 -72 -116 -82 -19 0
-225 -158 0
-225 -17 0
-225 -55 0
-225 69 0
-225 -162 0
225 158 17 55 -69 162 0
221 222 223 224 225 0
-226 -190 0
-226 -129 0
-226 -135 0
-226 -36 0
-226 101 0
226 190 129 135 36 -101 0
-227 68 0
-227 100 0
-227 134 0
-227 -96 0
-227 47 0
227 -68 -100 -134 96 -47 0
-228 -94 0
-228 44 0
-228 103 0
-228 -124 0
-228 16 0
228 94 -44 -103 124 -16 0
-229 26 0
-229 -120 0
-229 92 0
-229 121 0
-229 -174 0
229 -26 120 -92 -121 174 0
-230 -99 0
-230 68 0
-230 -7 0
-230 165 0
-230 6 0
230 99 -68 7 -165 -6 0
226 227 228 229 230 0
-231 -134 0
-231 54 0
-231 154 0
-231 -120 0
-231 -166 0
231 134 -54 -154 120 166 0
-232 -187 0
-232 82 0
-232 158 0
-232 -4 0
-232 -20 0
232 187 -82 -158 4 20 0
-233 -159 0
-233 111 0
-233 31 0
-233 141 0
-233 70 0
233 159 -111 -31 -141 -70 0
-234 91 0
-234 96 0
-234 108 0
-234 -39 0
-234 20 0
234 -91 -96 -108 39 -20 0
-235 -28 0
-235 183 0
-235 -30 0
-235 -65 0
-235 -119 0
235 28 -183 30 65 119 0
231 232 233 234 235 0
-236 179 0
-236 -98 0
-236 190 0
-236 -169 0
-236 18 0
236 -179 98 -190 169 -18 0
-237 124 0
-237 148 0
-237 94 0
-237 -80 0
-237 48 0
237 -124 -148 -94 80 -48 0
-238 -105 0
-238 130 0
-238 -146 0
-238 24 0
-238 -112 0
238 105 -130 146 -24 112 0
-239 -65 0
-239 24 0
-239 -188 0
-239 -143 0
-239 57 0
239 65 -24 188 143 -57 0
-240 -149 0
-240 128 0
-240 178 0
-240 -180 0
-240 68 0
240 149 -128 -178 180 -68 0
236 237 238 239 240 0
-241 17 0
-241 15 0
-241 -20 0
-241 -87 0
-241 -88 0
241 -17 -15 20 87 88 0
-242 19 0
-242 127 0
-242 12 0
-242 -81 0
-242 139 0
242 -19 -127 -12 81 -139 0
-243 69 0
-243 190 0
-243 5 0
-243 -152 0
-243 -38 0
243 -69 -190 -5 152 38 0
-244 -118 0
-244 -170 0
-244 -3 0
-244 -59 0
-244 -107 0
244 118 170 3 59 107 0
-245 -132 0
-245 138 0
-245 -41 0
-245 -49 0
-245 -79 0
245 132 -138 41 49 79 0
241 242 243 244 245 0
-246 171 0
-246 58 0
-246 -13 0
-246 -10 0
-246 91 0
246 -171 -58 13 10 -91 0
-247 -168 0
-247 98 0
-247 -87 0
-247 157 0
-247 -44 0
247 168 -98 87 -157 44 0
-248 -15 0
-248 56 0
-248 16 0
-248 186 0
-248 148 0
248 15 -56 -16 -186 -148 0
-249 149 0
-249 -68 0
-249 142 0
-249 161 0
-249 163 0
249 -149 68 -142 -161 -163 0
-250 -29 0
-250 172 0
-250 102 0
-250 -94 0
-250 -99 0
250 29 -172 -102 94 99 0
246 247 248 249 250 0
-251 -3 0
-251 -29 0
-251 113 0
-251 38 0
-251 10 0
251 3 29 -113 -38 -10 0
-252 -131 0
-252 132 0
-252 -59 0
-252 21 0
-252 157 0
252 131 -132 59 -21 -157 0
-253 166 0
-253 77 0
-253 -36 0
-253 -163 0
-253 56 0
253 -166 -77 36 163 -56 0
-254 -182 0
-254 -15 0
-254 -116 0
-254 -104 0
-254 -9 0
254 182 15 116 104 9 0
-255 133 0
-255 113 0
-255 124 0
-255 -91 0
-255 -28 0
255 -133 -113 -124 91 28 0
251 252 253 254 255 0
-256 131 0
-256 -168 0
-256 125 0
-256 -48 0
-256 -37 0
256 -131 168 -125 48 37 0
-257 -50 0
-257 -180 0
-257 -182 0
-257 71 0
-257 148 0
257 50 180 182 -71 -148 0
-258 -91 0
-258 128 0
-258 -146 0
-258 -18 0
-258 -113 0
258 91 -128 146 18 113 0
-259 109 0
-259 -121 0
-259 -168 0
-259 152 0
-259 -108 0
259 -109 121 168 -152 108 0
-260 153 0
-260 57 0
-260 -56 0
-260 32 0
-260 -140 0
260 -153 -57 56 -32 140 0
256 257 258 259 260 0
-261 181 0
-261 156 0
-261 -30 0
-261 187 0
-261 -159 0
261 -181 -156 30 -187 159 0
-262 132 0
-262 37 0
-262 17 0
-262 -110 0
-262 185 0
262 -132 -37 -17 110 -185 0
-263 29 0
-263 184 0
-263 187 0
-263 -109 0
-263 2 0
263 -29 -184 -187 109 -2 0
-264 41 0
-264 97 0
-264 -179 0
-264 63 0
-264 -64 0
264 -41 -97 179 -63 64 0
-265 -41 0
-265 -15 0
-265 -144 0
-265 109 0
-265 -95 0
265 41 15 144 -109 95 0
261 262 263 264 265 0
-266 5 0
-266 175 0
-266 62 0
-266 -44 0
-266 -88 0
266 -5 -175 -62 44 88 0
-267 -89 0
-267 46 0
-267 -190 0
-267 81 0
-267 -123 0
267 89 -46 190 -81 123 0
-268 83 0
-268 -176 0
-268 111 0
-268 -48 0
-268 27 0
268 -83 176 -111 48 -27 0
-269 166 0
-269 107 0
-269 170 0
-269 183 0
-269 52 0
269 -166 -107 -170 -183 -52 0
-270 -118 0
-270 -143 0
-270 167 0
-270 -86 0
-270 21 0
270 118 143 -167 86 -21 0
266 267 268 269 270 0
-271 -28 0
-271 -92 0
-271 -33 0
-271 -82 0
-271 -60 0
271 28 92 33 82 60 0
-272 -69 0
-272 121 0
-272 -64 0
-272 -105 0
-272 149 0
272 69 -121 64 105 -149 0
-273 88 0
-273 138 0
-273 140 0
-273 67 0
-273 91 0
273 -88 -138 -140 -67 -91 0
-274 71 0
-274 -101 0
-274 -117 0
-274 -111 0
-274 185 0
274 -71 101 117 111 -185 0
-275 -161 0
-275 -63 0
-275 -26 0
-275 -3 0
-275 -116 0
275 161 63 26 3 116 0
271 272 273 274 275 0
-276 -75 0
-276 -8 0
-276 40 0
-276 56 0
-276 -124 0
276 75 8 -40 -56 124 0
-277 -137 0
-277 -14 0
-277 -123 0
-277 -9 0
-277 -118 0
277 137 14 123 9 118 0
-278 -141 0
-278 14 0
-278 -137 0
-278 -164 0
-278 12 0
278 141 -14 137 164 -12 0
-279 160 0
-279 -89 0
-279 -73 0
-279 -53 0
-279 -63 0
279 -160 89 73 53 63 0
-280 -120 0
-280 -64 0
-280 155 0
-280 179 0
-280 10 0
280 120 64 -155 -179 -10 0
276 277 278 279 280 0
-281 12 0
-281 163 0
-281 -55 0
-281 -3 0
-281 -90 0
281 -12 -163 55 3 90 0
-282 -40 0
-282 -75 0
-282 -84 0
-282 -176 0
-282 178 0
282 40 75 84 176 -178 0
-283 -68 0
-283 -169 0
-283 -3 0
-283 -76 0
-283 138 0
283 68 169 3 76 -138 0
-284 135 0
-284 167 0
-284 63 0
-284 -4 0
-284 117 0
284 -135 -167 -63 4 -117 0
-285 37 0
-285 136 0
-285 -94 0
-285 14 0
-285 -62 0
285 -37 -136 94 -14 62 0
281 282 283 284 285 0
-286 176 0
-286 22 0
-286 -92 0
-286 123 0
-286 -157 0
286 -176 -22 92 -123 157 0
-287 -42 0
-287 122 0
-287 -69 0
-287 123 0
-287 28 0
287 42 -122 69 -123 -28 0
-288 60 0
-288 32 0
-288 -166 0
-288 -161 0
-288 -150 0
288 -60 -32 166 161 150 0
-289 -10 0
-289 -27 0
-289 121 0
-289 39 0
-289 -13 0
289 10 27 -121 -39 13 0
-290 -120 0
-290 -87 0
-290 -131 0
-290 57 0
-290 185 0
290 120 87 131 -57 -185 0
286 287 288 289 290 0
-291 177 0
-291 -98 0
-291 -76 0
-291 99 0
-291 80 0
291 -177 98 76 -99 -80 0
-292 111 0
-292 -115 0
-292 -37 0
-292 -76 0
-292 130 0
292 -111 115 37 76 -130 0
-293 -35 0
-293 -97 0
-293 -46 0
-293 29 0
-293 133 0
293 35 97 46 -29 -133 0
-294 -49 0
-294 54 0
-294 -115 0
-294 -68 0
-294 -98 0
294 49 -54 115 68 98 0
-295 -176 0
-295 77 0
-295 92 0
-295 -19 0
-295 157 0
295 176 -77 -92 19 -157 0
291 292 293 294 295 0
-296 -68 0
-296 132 0
-296 -126 0
-296 -139 0
-296 181 0
296 68 -132 126 139 -181 0
-297 -156 0
-297 -56 0
-297 -165 0
-297 -161 0
-297 169 0
297 156 56 165 161 -169 0
-298 51 0
-298 -119 0
-298 -28 0
-298 160 0
-298 -111 0
298 -51 119 28 -160 111 0
-299 99 0
-299 166 0
-299 90 0
-299 -75 0
-299 -81 0
299 -99 -166 -90 75 81 0
-300 -9 0
-300 -14 0
-300 -153 0
-300 -107 0
-300 -174 0
300 9 14 153 107 174 0
296 297 298 299 300 0
-301 -158 0
-301 75 0
-301 176 0
-301 -190 0
-301 31 0
301 158 -75 -176 190 -31 0
-302 -128 0
-302 42 0
-302 146 0
-302 38 0
-302 -155 0
302 128 -42 -146 -38 155 0
-303 117 0
-303 -32 0
-303 46 0
-303 99 0
-303 -138 0
303 -117 32 -46 -99 138 0
-304 -103 0
-304 166 0
-304 46 0
-304 -101 0
-304 -116 0
304 103 -166 -46 101 116 0
-305 -47 0
-305 173 0
-305 139 0
-305 90 0
-305 -178 0
305 47 -173 -139 -90 178 0
301 302 303 304 305 0
-306 -184 0
-306 11 0
-306 10 0
-306 97 0
-306 -147 0
306 184 -11 -10 -97 147 0
-307 167 0
-307 76 0
-307 -170 0
-307 -3 0
-307 -129 0
307 -167 -76 170 3 129 0
-308 -169 0
-308 119 0
-308 23 0
-308 -73 0
-308 -21 0
308 169 -119 -23 73 21 0
-309 -130 0
-309 190 0
-309 37 0
-309 -55 0
-309 144 0
309 130 -190 -37 55 -144 0
-310 -84 0
-310 -44 0
-310 -98 0
-310 -179 0
-310 20 0
310 84 44 98 179 -20 0
306 307 308 309 310 0
-311 -152 0
-311 109 0
-311 -43 0
-311 160 0
-311 -46 0
311 152 -109 43 -160 46 0
-312 59 0
-312 117 0
-312 145 0
-312 -94 0
-312 -22 0
312 -59 -117 -145 94 22 0
-313 -96 0
-313 -18 0
-313 12 0
-313 24 0
-313 39 0
313 96 18 -12 -24 -39 0
-314 -181 0
-314 -16 0
-314 34 0
-314 -135 0
-314 -90 0
314 181 16 -34 135 90 0
-315 -144 0
-315 61 0
-315 -159 0
-315 -71 0
-315 -163 0
315 144 -61 159 71 163 0
311 312 313 314 315 0
-316 13 0
-316 56 0
-316 -89 0
-316 70 0
-316 163 0
316 -13 -56 89 -70 -163 0
-317 -22 0
-317 -48 0
-317 -166 0
-317 179 0
-317 -161 0
317 22 48 166 -179 161 0
-318 1 0
-318 -7 0
-318 81 0
-318 -184 0
-318 -140 0
318 -1 7 -81 184 140 0
-319 -81 0
-319 77 0
-319 -20 0
-319 -165 0
-319 -12 0
319 81 -77 20 165 12 0
-320 -190 0
-320 -3 0
-320 -175 0
-320 -131 0
-320 -177 0
320 190 3 175 131 177 0
316 317 318 319 320 0
-321 -116 0
-321 190 0
-321 63 0
-321 -40 0
-321 -153 0
321 116 -190 -63 40 153 0
-322 138 0
-322 150 0
-322 70 0
-322 86 0
-322 167 0
322 -138 -150 -70 -86 -167 0
-323 -68 0
-323 154 0
-323 176 0
-323 148 0
-323 79 0
323 68 -154 -176 -148 -79 0
-324 18 0
-324 -175 0
-324 49 0
-324 -173 0
-324 102 0
324 -18 175 -49 173 -102 0
-325 19 0
-325 -89 0
-325 -96 0
-325 13 0
-325 -178 0
325 -19 89 96 -13 178 0
321 322 323 324 325 0
-326 131 0
-326 -171 0
-326 102 0
-326 43 0
-326 -1 0
326 -131 171 -102 -43 1 0
-327 -102 0
-327 40 0
-327 134 0
-327 33 0
-327 -122 0
327 102 -40 -134 -33 122 0
-328 -90 0
-328 100 0
-328 -59 0
-328 122 0
-328 131 0
328 90 -100 59 -122 -131 0
-329 -183 0
-329 -116 0
-329 -182 0
-329 114 0
-329 73 0
329 183 116 182 -114 -73 0
-330 70 0
-330 11 0
-330 10 0
-330 15 0
-330 154 0
330 -70 -11 -10 -15 -154 0
326 327 328 329 330 0
-331 -92 0
-331 -34 0
-331 54 0
-331 152 0
-331 53 0
331 92 34 -54 -152 -53 0
-332 155 0
-332 110 0
-332 -188 0
-332 167 0
-332 82 0
332 -155 -110 188 -167 -82 0
-333 -51 0
-333 -37 0
-333 -177 0
-333 190 0
-333 55 0
333 51 37 177 -190 -55 0
-334 116 0
-334 -27 0
-334 -105 0
-334 -161 0
-334 188 0
334 -116 27 105 161 -188 0
-335 113 0
-335 -111 0
-335 -149 0
-335 56 0
-335 39 0
335 -113 111 149 -56 -39 0
331 332 333 334 335 0
-336 -87 0
-336 -173 0
-336 -108 0
-336 -140 0
-336 -92 0
336 87 173 108 140 92 0
-337 161 0
-337 68 0
-337 -37 0
-337 -124 0
-337 -74 0
337 -161 -68 37 124 74 0
-338 -126 0
-338 58 0
-338 89 0
-338 95 0
-338 142 0
338 126 -58 -89 -95 -142 0
-339 83 0
-339 -47 0
-339 -161 0
-339 -167 0
-339 165 0
339 -83 47 161 167 -165 0
-340 147 0
-340 69 0
-340 58 0
-340 -68 0
-340 -72 0
340 -147 -69 -58 68 72 0
336 337 338 339 340 0
-341 -48 0
-341 -66 0
-341 -139 0
-341 -80 0
-341 122 0
341 48 66 139 80 -122 0
-342 3 0
-342 181 0
-342 -162 0
-342 172 0
-342 183 0
342 -3 -181 162 -172 -183 0
-343 171 0
-343 113 0
-343 -11 0
-343 190 0
-343 134 0
343 -171 -113 11 -190 -134 0
-344 -100 0
-344 135 0
-344 165 0
-344 139 0
-344 -3 0
344 100 -135 -165 -139 3 0
-345 -130 0
-345 -4 0
-345 -54 0
-345 155 0
-345 -120 0
345 130 4 54 -155 120 0
341 342 343 344 345 0
-346 -132 0
-346 -96 0
-346 119 0
-346 13 0
-346 152 0
346 132 96 -119 -13 -152 0
-347 -102 0
-347 185 0
-347 -43 0
-347 -115 0
-347 146 0
347 102 -185 43 115 -146 0
-348 -18 0
-348 84 0
-348 -33 0
-348 144 0
-348 -46 0
348 18 -84 33 -144 46 0
-349 -10 0
-349 127 0
-349 18 0
-349 63 0
-349 -82 0
349 10 -127 -18 -63 82 0
-350 -107 0
-350 -33 0
-350 -168 0
-350 103 0
-350 -51 0
350 107 33 168 -103 51 0
346 347 348 349 350 0
-351 51 0
-351 -67 0
-351 54 0
-351 -173 0
-351 -27 0
351 -51 67 -54 173 27 0
-352 44 0
-352 -134 0
-352 -145 0
-352 -78 0
-352 31 0
352 -44 134 145 78 -31 0
-353 -133 0
-353 -126 0
-353 -97 0
-353 -175 0
-353 -130 0
353 133 126 97 175 130 0
-354 -87 0
-354 -135 0
-354 89 0
-354 11 0
-354 99 0
354 87 135 -89 -11 -99 0
-355 -135 0
-355 -132 0
-355 -82 0
-355 154 0
-355 -85 0
355 135 132 82 -154 85 0
351 352 353 354 355 0
-356 -10 0
-356 -168 0
-356 75 0
-356 162 0
-356 96 0
356 10 168 -75 -162 -96 0
-357 -62 0
-357 -129 0
-357 84 0
-357 -13 0
-357 -105 0
357 62 129 -84 13 105 0
-358 -61 0
-358 -30 0
-358 17 0
-358 -89 0
-358 45 0
358 61 30 -17 89 -45 0
-359 -141 0
-359 -70 0
-359 189 0
-359 -184 0
-359 111 0
359 141 70 -189 184 -111 0
-360 -38 0
-360 123 0
-360 -41 0
-360 -152 0
-360 158 0
360 38 -123 41 152 -158 0
356 357 358 359 360 0
-361 90 0
-361 -29 0
-361 110 0
-361 40 0
-361 -136 0
361 -90 29 -110 -40 136 0
-362 -47 0
-362 -5 0
-362 -101 0
-362 74 0
-362 -155 0
362 47 5 101 -74 155 0
-363 -127 0
-363 -81 0
-363 -91 0
-363 160 0
-363 68 0
363 127 81 91 -160 -68 0
-364 -94 0
-364 -31 0
-364 -30 0
-364 -50 0
-364 18 0
364 94 31 30 50 -18 0
-365 175 0
-365 -74 0
-365 -148 0
-365 138 0
-365 52 0
365 -175 74 148 -138 -52 0
361 362 363 364 365 0
-366 -184 0
-366 -57 0
-366 -91 0
-366 -77 0
-366 -182 0
366 184 57 91 77 182 0
-367 189 0
-367 -40 0
-367 -47 0
-367 173 0
-367 179 0
367 -189 40 47 -173 -179 0
-368 -32 0
-368 -2 0
-368 58 0
-368 104 0
-368 -46 0
368 32 2 -58 -104 46 0
-369 -172 0
-369 -38 0
-369 -13 0
-369 65 0
-369 46 0
369 172 38 13 -65 -46 0
-370 -122 0
-370 -131 0
-370 -130 0
-370 -180 0
-370 -164 0
370 122 131 130 180 164 0
366 367 368 369 370 0
-371 85 0
-371 109 0
-371 50 0
-371 155 0
-371 -55 0
371 -85 -109 -50 -155 55 0
-372 60 0
-372 10 0
-372 156 0
-372 -63 0
-372 -135 0
372 -60 -10 -156 63 135 0
-373 84 0
-373 -81 0
-373 113 0
-373 -177 0
-373 96 0
373 -84 81 -113 177 -96 0
-374 -113 0
-374 88 0
-374 190 0
-374 139 0
-374 -37 0
374 113 -88 -190 -139 37 0
-375 -82 0
-375 -41 0
-375 -115 0
-375 -42 0
-375 156 0
375 82 41 115 42 -156 0
371 372 373 374 375 0
-376 78 0
-376 63 0
-376 -39 0
-376 -132 0
-376 151 0
376 -78 -63 39 132 -151 0
-377 100 0
-377 -166 0
-377 -68 0
-377 -76 0
-377 -172 0
377 -100 166 68 76 172 0
-378 48 0
-378 76 0
-378 145 0
-378 87 0
-378 103 0
378 -48 -76 -145 -87 -103 0
-379 -31 0
-379 -101 0
-379 -154 0
-379 -153 0
-379 -180 0
379 31 101 154 153 180 0
-380 43 0
-380 126 0
-380 -14 0
-380 -63 0
-380 132 0
380 -43 -126 14 63 -132 0
376 377 378 379 380 0
-381 53 0
-381 -110 0
-381 71 0
-381 -18 0
-381 -96 0
381 -53 110 -71 18 96 0
-382 -22 0
-382 -26 0
-382 75 0
-382 -175 0
-382 -95 0
382 22 26 -75 175 95 0
-383 81 0
-383 44 0
-383 -124 0
-383 -73 0
-383 -43 0
383 -81 -44 124 73 43 0
-384 143 0
-384 78 0
-384 -34 0
-384 30 0
-384 -185 0
384 -143 -78 34 -30 185 0
-385 -189 0
-385 -89 0
-385 -45 0
-385 -43 0
-385 66 0
385 189 89 45 43 -66 0
381 382 383 384 385 0
-386 -21 0
-386 -179 0
-386 -150 0
-386 -184 0
-386 149 0
386 21 179 150 184 -149 0
-387 76 0
-387 -150 0
-387 17 0
-387 157 0
-387 23 0
387 -76 150 -17 -157 -23 0
-388 -121 0
-388 -41 0
-388 -16 0
-388 189 0
-388 -148 0
388 121 41 16 -189 148 0
-389 45 0
-389 -103 0
-389 41 0
-389 -173 0
-389 96 0
389 -45 103 -41 173 -96 0
-390 -169 0
-390 3 0
-390 -79 0
-390 -10 0
-390 153 0
390 169 -3 79 10 -153 0
386 387 388 389 390 0
-391 22 0
-391 -126 0
-391 118 0
-391 -121 0
-391 -56 0
391 -22 126 -118 121 56 0
-392 108 0
-392 -17 0
-392 45 0
-392 134 0
-392 115 0
392 -108 17 -45 -134 -115 0
-393 123 0
-393 -60 0
-393 117 0
-393 -50 0
-393 -180 0
393 -123 60 -117 50 180 0
-394 17 0
-394 -15 0
-394 94 0
-394 -156 0
-394 -112 0
394 -17 15 -94 156 112 0
-395 -118 0
-395 -107 0
-395 -14 0
-395 -26 0
-395 51 0
395 118 107 14 26 -51 0
391 392 393 394 395 0
-396 177 0
-396 -155 0
-396 101 0
-396 120 0
-396 73 0
396 -177 155 -101 -120 -73 0
-397 -74 0
-397 92 0
-397 -189 0
-397 -100 0
-397 -23 0
397 74 -92 189 100 23 0
-398 98 0
-398 -76 0
-398 -103 0
-398 42 0
-398 130 0
398 -98 76 103 -42 -130 0
-399 55 0
-399 52 0
-399 -54 0
-399 116 0
-399 155 0
399 -55 -52 54 -116 -155 0
-400 20 0
-400 165 0
-400 85 0
-400 -95 0
-400 102 0
400 -20 -165 -85 95 -102 0
396 397 398 399 400 0
-401 -95 0
-401 -82 0
-401 184 0
-401 -152 0
-401 -188 0
401 95 82 -184 152 188 0
-402 109 0
-402 41 0
-402 -96 0
-402 120 0
-402 180 0
402 -109 -41 96 -120 -180 0
-403 105 0
-403 43 0
-403 51 0
-403 44 0
-403 -32 0
403 -105 -43 -51 -44 32 0
-404 -96 0
-404 -78 0
-404 -110 0
-404 178 0
-404 77 0
404 96 78 110 -178 -77 0
-405 -90 0
-405 174 0
-405 -18 0
-405 -3 0
-405 65 0
405 90 -174 18 3 -65 0
401 402 403 404 405 0
-406 -120 0
-406 114 0
-406 -186 0
-406 64 0
-406 -96 0
406 120 -114 186 -64 96 0
-407 -117 0
-407 24 0
-407 -92 0
-407 -46 0
-407 -39 0
407 117 -24 92 46 39 0
-408 -52 0
-408 19 0
-408 -162 0
-408 38 0
-408 129 0
408 52 -19 162 -38 -129 0
-409 -132 0
-409 36 0
-409 108 0
-409 62 0
-409 -88 0
409 132 -36 -108 -62 88 0
-410 35 0
-410 -17 0
-410 -48 0
-410 8 0
-410 -132 0
410 -35 17 48 -8 132 0
406 407 408 409 410 0
-411 13 0
-411 5 0
-411 84 0
-411 -127 0
-411 115 0
411 -13 -5 -84 127 -115 0
-412 166 0
-412 -119 0
-412 170 0
-412 -169 0
-412 -112 0
412 -166 119 -170 169 112 0
-413 10 0
-413 186 0
-413 184 0
-413 189 0
-413 59 0
413 -10 -186 -184 -189 -59 0
-414 116 0
-414 -135 0
-414 101 0
-414 -130 0
-414 -13 0
414 -116 135 -101 130 13 0
-415 -100 0
-415 -122 0
-415 -34 0
-415 145 0
-415 94 0
415 100 122 34 -145 -94 0
411 412 413 414 415 0
-416 -138 0
-416 -1 0
-416 -25 0
-416 72 0
-416 -160 0
416 138 1 25 -72 160 0
-417 -51 0
-417 29 0
-417 40 0
-417 -149 0
-417 107 0
417 51 -29 -40 149 -107 0
-418 41 0
-418 -69 0
-418 49 0
-418 -184 0
-418 35 0
418 -41 69 -49 184 -35 0
-419 137 0
-419 188 0
-419 -31 0
-419 -99 0
-419 127 0
419 -137 -188 31 99 -127 0
-420 -27 0
-420 -153 0
-420 119 0
-420 -34 0
-420 11 0
420 27 153 -119 34 -11 0
416 417 418 419 420 0
-421 148 0
-421 129 0
-421 -134 0
-421 -143 0
-421 80 0
421 -148 -129 134 143 -80 0
-422 55 0
-422 82 0
-422 -83 0
-422 -186 0
-422 167 0
422 -55 -82 83 186 -167 0
-423 11 0
-423 163 0
-423 190 0
-423 123 0
-423 150 0
423 -11 -163 -190 -123 -150 0
-424 -147 0
-424 186 0
-424 124 0
-424 60 0
-424 -119 0
424 147 -186 -124 -60 119 0
-425 -136 0
-425 69 0
-425 115 0
-425 -81 0
-425 -72 0
425 136 -69 -115 81 72 0
421 422 423 424 425 0
-426 -123 0
-426 161 0
-426 -46 0
-426 169 0
-426 -92 0
426 123 -161 46 -169 92 0
-427 131 0
-427 -88 0
-427 -124 0
-427 135 0
-427 98 0
427 -131 88 124 -135 -98 0
-428 78 0
-428 -83 0
-428 168 0
-428 67 0
-428 165 0
428 -78 83 -168 -67 -165 0
-429 13 0
-429 -154 0
-429 127 0
-429 99 0
-429 -55 0
429 -13 154 -127 -99 55 0
-430 -32 0
-430 -137 0
-430 -123 0
-430 -26 0
-430 -86 0
430 32 137 123 26 86 0
426 427 428 429 430 0
